Name: Aflatoxin M1
Synon: (6aR,9aR)-9a-Hydroxy-4-methoxy-2,3,6a,9a-tetrahydrocyclopenta[c]furo[3',2':4,5]furo[2,3-h]chromene-1,11-dione
DB#: AC000047
InChIKey: MJBWDEQAUQTVKK-IAGOWNOFSA-N
InChI: InChI=1S/C17H12O7/c1-21-9-6-10-13(17(20)4-5-22-16(17)23-10)14-12(9)7-2-3-8(18)11(7)15(19)24-14/h4-6,16,20H,2-3H2,1H3/t16-,17-/m1/s1
SMILES: COC1=C2C3=C(C(=O)CC3)C(=O)OC2=C4C(=C1)O[C@@H]5[C@]4(C=CO5)O
Precursor_type: [M+Na]+
Spectrum_type: MS2
PrecursorMZ: 351.047
Instrument_type: LC-ESI-ITFT
Instrument: Q-Exactive Orbitrap Thermo Scientific
Ion_mode: POSITIVE
Collision_energy: 30(NCE)
Formula: C17H12O7
MW: 328
ExactMass: 328.05828
Comments: Parent=351.047
Splash: splash10-0udi-0009000000-c3d2dcb9ad222f2eb617
Num Peaks: 1
351.0475 999

Name: Fumonisin Py2
DB#: AC000939
InChIKey: GZCJIEXTWGJVIN-MKHOGIGVSA-N
InChI: InChI=1S/C34H56O15/c1-5-6-12-21(3)32(49-31(43)18-24(34(46)47)16-29(40)41)27(48-30(42)17-23(33(44)45)15-28(38)39)14-20(2)11-9-7-8-10-13-25(36)19-26(37)22(4)35/h20-21,23-27,32,36-37H,5-19H2,1-4H3,(H,38,39)(H,40,41)(H,44,45)(H,46,47)/t20-,21+,23+,24+,25+,26-,27-,32+/m0/s1
SMILES: CCCC[C@H]([C@@H](OC(C[C@H](C(O)=O)CC(O)=O)=O)[C@@H](OC(C[C@H](C(O)=O)CC(O)=O)=O)C[C@H](CCCCCC[C@@H](O)C[C@H](O)C(C)=O)C)C
Precursor_type: [M-H]-
Spectrum_type: MS2
PrecursorMZ: 703.3552
Instrument_type: LC-ESI-ITFT
Instrument: Q-Exactive Orbitrap Thermo Scientific
Ion_mode: NEGATIVE
Collision_energy: 40(NCE)
Formula: C34H56O15
MW: 704
ExactMass: 704.36191
Comments: Parent=703.3552
Splash: splash10-0a4i-2900000000-7d8a78fe1a32d7af6198
Num Peaks: 4
69.0327 318
71.012 42
113.0224 259
157.0122 999

Name: Bassanolide
Synon: (3S,6R,9S,12R,15S,18R,21S,24R)-4,10,16,22-tetramethyl-3,9,15,21-tetrakis(2-methylpropyl)-6,12,18,24-tetra(propan-2-yl)-1,7,13,19-tetraoxa-4,10,16,22-tetrazacyclotetracosane-2,5,8,11,14,17,20,23-octone
DB#: AC000422
InChIKey: QVZZPLDJERFENQ-NKTUOASPSA-N
InChI: InChI=1S/C48H84N4O12/c1-25(2)21-33-45(57)61-38(30(11)12)42(54)50(18)35(23-27(5)6)47(59)63-40(32(15)16)44(56)52(20)36(24-28(7)8)48(60)64-39(31(13)14)43(55)51(19)34(22-26(3)4)46(58)62-37(29(9)10)41(53)49(33)17/h25-40H,21-24H2,1-20H3/t33-,34-,35-,36-,37+,38+,39+,40+/m0/s1
SMILES: CC(C)C[C@H]1C(=O)O[C@@H](C(=O)N([C@H](C(=O)O[C@@H](C(=O)N([C@H](C(=O)O[C@@H](C(=O)N([C@H](C(=O)O[C@@H](C(=O)N1C)C(C)C)CC(C)C)C)C(C)C)CC(C)C)C)C(C)C)CC(C)C)C)C(C)C
Precursor_type: [M+Na]+
Spectrum_type: MS2
PrecursorMZ: 931.5973
Instrument_type: LC-ESI-ITFT
Instrument: Q-Exactive Orbitrap Thermo Scientific
Ion_mode: POSITIVE
Collision_energy: 30(NCE)
Formula: C48H84N4O12
MW: 909
ExactMass: 908.60858
Comments: Parent=931.5973
Splash: splash10-001i-0000000009-cc9a6c0f399542976833
Num Peaks: 3
577.3486 65
804.5008 107
931.5978 999

Name: Fusarenone-X
Synon: (3beta,4alpha,7alpha)-3,7,15-Trihydroxy-8-oxo-12,13-epoxytrichothec-9-en-4-yl acetate
DB#: AC000145
InChIKey: XGCUCFKWVIWWNW-CAYGJDLQSA-N
InChI: InChI=1S/C17H22O8/c1-7-4-9-16(5-18,12(22)10(7)20)15(3)13(24-8(2)19)11(21)14(25-9)17(15)6-23-17/h4,9,11-14,18,21-22H,5-6H2,1-3H3/t9-,11-,12-,13-,14-,15-,16-,17+/m1/s1
SMILES: CC1=C[C@@H]2[C@]([C@@H](C1=O)O)([C@]3([C@@H]([C@H]([C@H]([C@@]34CO4)O2)O)OC(=O)C)C)CO
Precursor_type: [M+Na]+
Spectrum_type: MS2
PrecursorMZ: 377.1201
Instrument_type: LC-ESI-ITFT
Instrument: Q-Exactive Orbitrap Thermo Scientific
Ion_mode: POSITIVE
Collision_energy: 10(NCE)
Formula: C17H22O8
MW: 354
ExactMass: 354.13145
Comments: Parent=377.1201
Splash: splash10-004i-0009000000-823d613ef39c43677ed7
Num Peaks: 1
377.1207 999

Name: Aflatoxin B1
Synon: (6aR,9aS)-4-Methoxy-2,3,6a,9a-tetrahydrocyclopenta[c]furo[3',2':4,5]furo[2,3-h]chromene-1,11-dione
DB#: AC000022
InChIKey: OQIQSTLJSLGHID-WNWIJWBNSA-N
InChI: InChI=1S/C17H12O6/c1-20-10-6-11-14(8-4-5-21-17(8)22-11)15-13(10)7-2-3-9(18)12(7)16(19)23-15/h4-6,8,17H,2-3H2,1H3/t8-,17+/m0/s1
SMILES: COC1=C2C3=C(C(=O)CC3)C(=O)OC2=C4[C@@H]5C=CO[C@@H]5OC4=C1
Precursor_type: [M+Na]+
Spectrum_type: MS2
PrecursorMZ: 335.052
Instrument_type: LC-ESI-ITFT
Instrument: Q-Exactive Orbitrap Thermo Scientific
Ion_mode: POSITIVE
Collision_energy: 20(NCE)
Formula: C17H12O6
MW: 312
ExactMass: 312.06337
Comments: Parent=335.052
Splash: splash10-000i-0009000000-16ddaac021d128f35d5d
Num Peaks: 1
335.0526 999

Name: Penicillic Acid
Synon: (2Z)-3-methoxy-5-methyl-4-oxohexa-2,5-dienoic acid
DB#: AC000668
InChIKey: VOUGEZYPVGAPBB-XQRVVYSFSA-N
InChI: InChI=1S/C8H10O4/c1-5(2)8(11)6(12-3)4-7(9)10/h4H,1H2,2-3H3,(H,9,10)/b6-4-
SMILES: CC(=C)C(=O)/C(=C/C(=O)O)/OC
Precursor_type: [M+H]+
Spectrum_type: MS2
PrecursorMZ: 171.0646
Instrument_type: LC-ESI-ITFT
Instrument: Q-Exactive Orbitrap Thermo Scientific
Ion_mode: POSITIVE
Collision_energy: 30(NCE)
Formula: C8H10O4
MW: 170
ExactMass: 170.0579
Comments: Parent=171.0646
Splash: splash10-00b9-0900000000-53bde9564c6a94fcb938
Num Peaks: 7
97.0658 62
111.0441 188
112.0519 114
125.0597 999
146.9626 50
153.0546 76
171.0652 522

Name: T-2 tetraol
Synon: T-2 toxin tetraol
Synon: 3-alpha,4-beta,8-alpha,15-Tetrahydroxy-12,13-epoxytrichothec-9-ene
DB#: AC000631
InChIKey: ZAXZBJSXSOISTF-ZSTBYQRGSA-N
InChI: InChI=1S/C15H22O6/c1-7-3-9-14(5-16,4-8(7)17)13(2)11(19)10(18)12(21-9)15(13)6-20-15/h3,8-12,16-19H,4-6H2,1-2H3/t8-,9+,10+,11+,12+,13+,14+,15?/m0/s1
SMILES: CC1=C[C@@H]2[C@](C[C@@H]1O)([C@]3([C@@H]([C@H]([C@H](C34CO4)O2)O)O)C)CO
Precursor_type: [M+H]+
Spectrum_type: MS2
PrecursorMZ: 299.1484
Instrument_type: LC-ESI-ITFT
Instrument: Q-Exactive Orbitrap Thermo Scientific
Ion_mode: POSITIVE
Collision_energy: 50(NCE)
Formula: C15H22O6
MW: 298
ExactMass: 298.14163
Comments: Parent=299.1484
Splash: splash10-006t-3900000000-f973095420d5d225f1b8
Num Peaks: 16
64.7497 161
71.0768 161
91.0542 210
93.0699 253
95.0491 256
97.0648 366
105.0699 210
107.0855 206
109.0648 252
121.0648 999
129.0699 195
133.1012 217
140.4219 215
145.1012 865
149.0961 198
175.1118 261

Name: Isomarticin
DB#: AC000164
InChIKey: HNMWDXUKPJZOQD-XPBDJYBLSA-N
InChI: InChI=1S/C18H16O9/c1-18-5-6-11(8(26-18)4-10(27-18)17(23)24)16(22)12-7(19)3-9(25-2)15(21)13(12)14(6)20/h3,8,10,20,22H,4-5H2,1-2H3,(H,23,24)/t8?,10-,18?/m1/s1
SMILES: CC12CC3=C(C4=C(C(=O)C=C(C4=O)OC)C(=C3C(O1)C[C@@H](O2)C(=O)O)O)O
Precursor_type: [M+H]+
Spectrum_type: MS2
PrecursorMZ: 377.0861
Instrument_type: LC-ESI-ITFT
Instrument: Q-Exactive Orbitrap Thermo Scientific
Ion_mode: POSITIVE
Collision_energy: 50(NCE)
Formula: C18H16O9
MW: 376
ExactMass: 376.07941
Comments: Parent=377.0861
Splash: splash10-05g0-0090000000-9181ef5ed5178451df1b
Num Peaks: 45
167.0339 49
169.0648 38
183.0441 46
185.0597 35
189.0546 50
197.0597 80
199.039 37
201.0546 36
211.039 104
213.0546 45
215.0703 43
216.0417 41
217.0495 106
225.0546 163
227.0339 36
228.0417 161
229.0495 109
231.0652 111
239.0339 93
239.0703 42
241.0495 60
242.0574 109
243.0652 276
244.0366 78
245.0444 225
253.0495 254
255.0652 36
256.0366 219
257.0444 168
257.0808 83
259.0601 515
260.0679 37
261.0757 35
267.0652 67
269.0444 43
270.0523 210
271.0601 999
273.0393 40
281.0444 32
285.0757 232
287.055 551
295.0601 90
298.0472 61
299.055 182
313.0707 240

Name: Roquefortine D
Synon: (3S,5aS,10bR,11aS)-3-(1H-Imidazol-5-ylmethyl)-10b-(2-methyl-3-buten-2-yl)-6,10b,11,11a-tetrahydro-2H-pyrazino[1',2':1,5]pyrrolo[2,3-b]indole-1,4(3H,5aH)-dione
DB#: AC000807
InChIKey: IQVNREJWRXOHEO-UHFFFAOYSA-N
InChI: InChI=1S/C22H25N5O2/c1-4-21(2,3)22-10-17-18(28)25-16(9-13-11-23-12-24-13)19(29)27(17)20(22)26-15-8-6-5-7-14(15)22/h4-8,11-12,16-17,20,26H,1,9-10H2,2-3H3,(H,23,24)(H,25,28)
SMILES: CC(C)(C=C)C12CC3C(=O)NC(C(=O)N3C1NC4=CC=CC=C24)CC5=CN=CN5
Precursor_type: [M+H]+
Spectrum_type: MS2
PrecursorMZ: 392.2076
Instrument_type: LC-ESI-ITFT
Instrument: Q-Exactive Orbitrap Thermo Scientific
Ion_mode: POSITIVE
Collision_energy: 20(NCE)
Formula: C22H25N5O2
MW: 391
ExactMass: 391.20082
Comments: Parent=392.2076
Splash: splash10-00dl-0109000000-79222b8f6daa114624dc
Num Peaks: 5
195.0876 133
198.1277 85
324.1455 999
336.1455 83
392.2081 584

Name: Alternaric acid
Synon: (E,2S)-2-hydroxy-2-[(1R,2S)-1-hydroxy-2-methylbutyl]-9-[(6R)-6-methyl-2,4-dioxooxan-3-yl]-6-methylidene-9-oxonon-3-enoic acid
DB#: AC000649
InChIKey: OFVHHCDOMZQVQV-ZICDYRIUSA-N
InChI: InChI=1S/C21H30O8/c1-5-13(3)18(24)21(28,20(26)27)10-6-7-12(2)8-9-15(22)17-16(23)11-14(4)29-19(17)25/h6,10,13-14,17-18,24,28H,2,5,7-9,11H2,1,3-4H3,(H,26,27)/b10-6+/t13-,14+,17?,18+,21-/m0/s1
SMILES: CC[C@H](C)[C@H]([C@@](/C=C/CC(=C)CCC(=O)C1C(=O)C[C@H](OC1=O)C)(C(=O)O)O)O
Precursor_type: [M+Na]+
Spectrum_type: MS2
PrecursorMZ: 433.1827
Instrument_type: LC-ESI-ITFT
Instrument: Q-Exactive Orbitrap Thermo Scientific
Ion_mode: POSITIVE
Collision_energy: 30(NCE)
Formula: C21H30O8
MW: 410
ExactMass: 410.19406
Comments: Parent=433.1827
Splash: splash10-00xr-0009400000-b4e927f93278539d4b03
Num Peaks: 9
151.0366 46
285.1485 153
329.0996 39
329.1384 173
353.1723 188
371.1829 999
397.1622 94
415.1727 647
433.1833 35

Name: 3-Acetyldeoxynivalenol
Synon: 3-monoacetyldeoxynivalenol
DB#: AC000384
InChIKey: ADFIQZBYNGPCGY-HTJQZXIKSA-N
InChI: InChI=1S/C17H22O7/c1-8-4-11-16(6-18,13(21)12(8)20)15(3)5-10(23-9(2)19)14(24-11)17(15)7-22-17/h4,10-11,13-14,18,21H,5-7H2,1-3H3/t10-,11-,13-,14-,15-,16-,17+/m1/s1
SMILES: CC1=C[C@@H]2[C@]([C@@H](C1=O)O)([C@]3(C[C@H]([C@H]([C@@]34CO4)O2)OC(=O)C)C)CO
Precursor_type: [M+H]+
Spectrum_type: MS2
PrecursorMZ: 339.1433
Instrument_type: LC-APCI-ITFT
Instrument: Q-Exactive Orbitrap Thermo Scientific
Ion_mode: POSITIVE
Collision_energy: 30(NCE)
Formula: C17H22O7
MW: 338
ExactMass: 338.13654
Comments: Parent=339.1433
Splash: splash10-0w5i-0790000000-1bab38a908f28ef342b5
Num Peaks: 66
69.0342 74
79.0542 65
81.0707 92
93.0699 38
95.0491 38
97.0648 63
99.0441 34
107.0491 98
109.0648 266
121.0648 57
123.0441 97
125.0597 308
131.0855 48
133.0648 34
135.0441 44
135.0804 58
137.0597 520
143.0855 32
145.0648 58
145.1012 60
147.0804 68
149.0597 37
149.0961 35
151.039 37
153.0546 120
157.1012 98
159.0804 113
159.1168 70
161.0597 94
161.0961 65
163.0754 164
169.1012 81
171.0804 51
173.0961 140
175.0754 341
175.1118 70
177.091 87
185.0961 244
187.0754 45
187.1118 190
189.091 367
191.1067 39
193.0859 82
195.0804 36
197.0961 152
198.0675 51
201.091 418
203.0703 32
203.1067 805
205.0859 118
205.1223 37
213.091 893
215.1067 339
219.1016 234
223.0965 132
225.091 71
231.1016 999
233.1172 81
243.1016 162
249.1121 126
251.1278 33
261.1121 205
279.1227 552
297.1333 132
321.1333 117
339.1438 62

Name: Aflatoxin G2
Synon: (7aR,10aS)-5-Methoxy-3,4,7a,9,10,10a-hexahydro-1H,12H-furo[3',2':4,5]furo[2,3-h]pyrano[3,4-c]chromene-1,12-dione
DB#: AC000040
InChIKey: WPCVRWVBBXIRMA-WNWIJWBNSA-N
InChI: InChI=1S/C17H14O7/c1-20-9-6-10-12(8-3-5-22-17(8)23-10)14-11(9)7-2-4-21-15(18)13(7)16(19)24-14/h6,8,17H,2-5H2,1H3/t8-,17+/m0/s1
SMILES: COC1=C2C3=C(C(=O)OCC3)C(=O)OC2=C4[C@@H]5CCO[C@@H]5OC4=C1
Precursor_type: [M+H]+
Spectrum_type: MS2
PrecursorMZ: 331.0807
Instrument_type: LC-ESI-ITFT
Instrument: Q-Exactive Orbitrap Thermo Scientific
Ion_mode: POSITIVE
Collision_energy: 50(NCE)
Formula: C17H14O7
MW: 330
ExactMass: 330.07393
Comments: Parent=331.0807
Splash: splash10-06ss-0094000000-415ea5fb9149cefadc1f
Num Peaks: 30
187.0754 36
189.0546 125
199.0754 34
201.0546 66
201.091 152
203.0703 33
213.091 37
214.0624 56
215.0703 60
216.0781 50
217.0859 258
226.0624 38
227.0703 94
229.0495 76
229.0859 159
241.0859 115
242.0574 71
243.0652 165
245.0808 737
257.0444 194
257.0808 320
269.0808 63
270.0523 36
275.055 297
285.0757 577
287.055 59
287.0914 45
303.0863 197
313.0707 803
331.0812 999

Name: Fumonisin B2
DB#: AC000484
InChIKey: UXDPXZQHTDAXOZ-STOIETHLSA-N
InChI: InChI=1S/C34H59NO14/c1-5-6-12-21(3)32(49-31(43)18-24(34(46)47)16-29(40)41)27(48-30(42)17-23(33(44)45)15-28(38)39)14-20(2)11-9-7-8-10-13-25(36)19-26(37)22(4)35/h20-27,32,36-37H,5-19,35H2,1-4H3,(H,38,39)(H,40,41)(H,44,45)(H,46,47)/t20-,21+,22-,23+,24+,25+,26-,27-,32+/m0/s1
SMILES: CCCC[C@@H](C)[C@H]([C@H](C[C@@H](C)CCCCCC[C@H](C[C@@H]([C@H](C)N)O)O)OC(=O)C[C@@H](CC(=O)O)C(=O)O)OC(=O)C[C@@H](CC(=O)O)C(=O)O
Precursor_type: [M+H]+
Spectrum_type: MS2
PrecursorMZ: 706.4003
Instrument_type: LC-ESI-ITFT
Instrument: Q-Exactive Orbitrap Thermo Scientific
Ion_mode: POSITIVE
Collision_energy: 50(NCE)
Formula: C34H59NO14
MW: 705
ExactMass: 705.39354
Comments: Parent=706.4003
Splash: splash10-06ea-9300000000-405d978e1b3ec49eb2f8
Num Peaks: 47
56.0502 71
57.0341 59
57.0705 158
58.0658 93
67.0542 471
69.0699 999
70.0651 697
72.0808 34
74.06 635
79.0542 240
81.0699 913
82.0651 111
83.0855 244
84.0808 93
85.0284 153
85.0648 46
85.1012 161
91.0542 84
93.0699 365
94.0651 64
95.0855 844
96.0808 131
97.1012 115
98.0964 41
99.0077 42
105.0699 113
107.0855 283
109.1012 426
110.0964 64
113.0233 396
119.0855 72
121.1012 154
123.1168 115
133.1012 60
135.1168 105
137.1325 31
138.1277 33
141.0182 102
147.1168 56
149.1325 47
159.0288 413
194.1903 51
208.206 67
220.206 57
238.2166 53
318.3129 270
336.3234 286

Name: Patulin
Synon: Clavacin
Synon: Expansin
DB#: AC000651
InChIKey: ZRWPUFFVAOMMNM-UHFFFAOYSA-N
InChI: InChI=1S/C7H6O4/c8-6-3-4-5(11-6)1-2-10-7(4)9/h1,3,7,9H,2H2
SMILES: C1C=C2C(=CC(=O)O2)C(O1)O
Precursor_type: [M-H]-
Spectrum_type: MS2
PrecursorMZ: 153.0199
Instrument_type: LC-ESI-ITFT
Instrument: Q-Exactive Orbitrap Thermo Scientific
Ion_mode: NEGATIVE
Collision_energy: 20(NCE)
Formula: C7H6O4
MW: 154
ExactMass: 154.0266
Comments: Parent=153.0199
Splash: splash10-0560-5900000000-a8d241312fc6a564c5f1
Num Peaks: 8
81.0324 235
83.0482 83
97.0273 74
109.0276 271
111.0431 40
125.0223 177
125.0586 74
151.0021 31

Name: Verrucarin J
Synon: Muconomycin B
DB#: AC000265
InChIKey: GXCGYHWSYNQVHU-UGAPSZEOSA-N
InChI: InChI=1S/C27H32O8/c1-17-8-10-26-15-32-24(30)13-18(2)9-11-31-22(28)6-4-5-7-23(29)35-19-14-21(34-20(26)12-17)27(16-33-27)25(19,26)3/h4-7,12-13,19-21H,8-11,14-16H2,1-3H3/b6-4+,7-5+,18-13+/t19-,20-,21-,25-,26-,27+/m1/s1
SMILES: CC1=C[C@@H]2[C@@]3(CC1)COC(=O)/C=C(/CCOC(=O)/C=C/C=C/C(=O)O[C@H]4[C@]3([C@]5(CO5)[C@@H](C4)O2)C)\C
Precursor_type: [M+Na]+
Spectrum_type: MS2
PrecursorMZ: 507.1984
Instrument_type: LC-ESI-ITFT
Instrument: Q-Exactive Orbitrap Thermo Scientific
Ion_mode: POSITIVE
Collision_energy: 30(NCE)
Formula: C27H32O8
MW: 484
ExactMass: 484.20971
Comments: Parent=507.1984
Splash: splash10-0a4i-0530090000-692eaa440ba8b5eed93b
Num Peaks: 7
135.0417 551
147.0053 45
165.0158 35
259.0577 221
271.1305 72
277.0682 141
507.1989 999

Name: Beauvericin
Synon: (3S,6R,9S,12R,15S,18R)-3,9,15-tribenzyl-4,10,16-trimethyl-6,12,18-tri(propan-2-yl)-1,7,13-trioxa-4,10,16-triazacyclooctadecane-2,5,8,11,14,17-hexone
DB#: AC000579
InChIKey: GYSCAQFHASJXRS-FFCOJMSVSA-N
InChI: InChI=1S/C45H57N3O9/c1-28(2)37-40(49)46(7)35(26-32-21-15-11-16-22-32)44(53)56-39(30(5)6)42(51)48(9)36(27-33-23-17-12-18-24-33)45(54)57-38(29(3)4)41(50)47(8)34(43(52)55-37)25-31-19-13-10-14-20-31/h10-24,28-30,34-39H,25-27H2,1-9H3/t34-,35-,36-,37+,38+,39+/m0/s1
SMILES: CC(C)[C@@H]1C(=O)N([C@H](C(=O)O[C@@H](C(=O)N([C@H](C(=O)O[C@@H](C(=O)N([C@H](C(=O)O1)CC2=CC=CC=C2)C)C(C)C)CC3=CC=CC=C3)C)C(C)C)CC4=CC=CC=C4)C
Precursor_type: [M+Na]+
Spectrum_type: MS2
PrecursorMZ: 806.3982
Instrument_type: LC-ESI-ITFT
Instrument: Q-Exactive Orbitrap Thermo Scientific
Ion_mode: POSITIVE
Collision_energy: 20(NCE)
Formula: C45H57N3O9
MW: 783
ExactMass: 783.40948
Comments: Parent=806.3982
Splash: splash10-0a4i-0000000090-cd8d9626702c29d05b18
Num Peaks: 1
806.3987 999

Name: Rubrofusarin
Synon: Rubrafusarin
Synon: 5,6-Dihydroxy-8-methoxy-2-methyl-benzo[g]chromen-4-one
DB#: AC000705
InChIKey: FPNKCZKRICBAKG-UHFFFAOYSA-N
InChI: InChI=1S/C15H12O5/c1-7-3-10(16)14-12(20-7)5-8-4-9(19-2)6-11(17)13(8)15(14)18/h3-6,17-18H,1-2H3
SMILES: CC1=CC(=O)C2=C(O1)C=C3C=C(C=C(C3=C2O)O)OC
Precursor_type: [M+H]+
Spectrum_type: MS2
PrecursorMZ: 273.0752
Instrument_type: LC-ESI-ITFT
Instrument: Q-Exactive Orbitrap Thermo Scientific
Ion_mode: POSITIVE
Collision_energy: 20(NCE)
Formula: C15H12O5
MW: 272
ExactMass: 272.06846
Comments: Parent=273.0752
Splash: splash10-00di-0090000000-ff0e7b4f08445a7e3049
Num Peaks: 1
273.0757 999

Name: Gentisyl alcohol
Synon: 2-(hydroxymethyl)benzene-1,4-diol
DB#: AC000723
InChIKey: PUZSUVGRVHEUQO-UHFFFAOYSA-N
InChI: InChI=1S/C7H8O3/c8-4-5-3-6(9)1-2-7(5)10/h1-3,8-10H,4H2
SMILES: C1=CC(=C(C=C1O)CO)O
Precursor_type: [M+H]+
Spectrum_type: MS2
PrecursorMZ: 141.0541
Instrument_type: LC-ESI-ITFT
Instrument: Q-Exactive Orbitrap Thermo Scientific
Ion_mode: POSITIVE
Collision_energy: 55(NCE)
Formula: C7H8O3
MW: 140
ExactMass: 140.04734
Comments: Parent=141.0541
Splash: splash10-004l-0900000000-9eeebd6a3cdbf4c669a1
Num Peaks: 3
71.0128 40
126.0311 999
141.0546 863

Name: Enniatin B
DB#: AC000458
InChIKey: MIZMDSVSLSIMSC-VYLWARHZSA-N
InChI: InChI=1S/C33H57N3O9/c1-16(2)22-31(40)43-26(20(9)10)29(38)35(14)24(18(5)6)33(42)45-27(21(11)12)30(39)36(15)23(17(3)4)32(41)44-25(19(7)8)28(37)34(22)13/h16-27H,1-15H3/t22-,23-,24-,25+,26+,27+/m0/s1
SMILES: CC(C)[C@H]1C(=O)O[C@@H](C(=O)N([C@H](C(=O)O[C@@H](C(=O)N([C@H](C(=O)O[C@@H](C(=O)N1C)C(C)C)C(C)C)C)C(C)C)C(C)C)C)C(C)C
Precursor_type: [M+Na]+
Spectrum_type: MS2
PrecursorMZ: 662.3982
Instrument_type: LC-ESI-ITFT
Instrument: Q-Exactive Orbitrap Thermo Scientific
Ion_mode: POSITIVE
Collision_energy: 20(NCE)
Formula: C33H57N3O9
MW: 639
ExactMass: 639.40948
Comments: Parent=662.3982
Splash: splash10-03di-0000009000-3b0a94c2e15a672e2347
Num Peaks: 1
662.3987 999

Name: T-2 Toxin
Synon: Fusariotoxin T 2
Synon: Insariotoxin
Synon: T-2 mycotoxin
Synon: (2alpha,3alpha,4beta,8alpha)-4,15-bis(acetyloxy)-3-hydroxy-12,13-epoxytrichothec-9-en-8-yl 3-methylbutanoate
DB#: AC000236
InChIKey: BXFOFFBJRFZBQZ-QYWOHJEZSA-N
InChI: InChI=1S/C24H34O9/c1-12(2)7-18(27)32-16-9-23(10-29-14(4)25)17(8-13(16)3)33-21-19(28)20(31-15(5)26)22(23,6)24(21)11-30-24/h8,12,16-17,19-21,28H,7,9-11H2,1-6H3/t16-,17+,19+,20+,21+,22+,23+,24-/m0/s1
SMILES: CC1=C[C@@H]2[C@](C[C@@H]1OC(=O)CC(C)C)([C@]3([C@@H]([C@H]([C@H]([C@@]34CO4)O2)O)OC(=O)C)C)COC(=O)C
Precursor_type: [M+H]+
Spectrum_type: MS2
PrecursorMZ: 467.227
Instrument_type: LC-ESI-ITFT
Instrument: Q-Exactive Orbitrap Thermo Scientific
Ion_mode: POSITIVE
Collision_energy: 35(NCE)
Formula: C24H34O9
MW: 466
ExactMass: 466.22027
Comments: Parent=467.227
Splash: splash10-060a-2920000000-e581b66b83ab3a3c0b22
Num Peaks: 73
57.0706 935
69.0335 83
79.0542 82
81.0699 66
83.0491 71
85.0648 704
91.0542 94
93.0699 244
95.0491 237
95.0855 70
97.0648 150
105.0699 490
107.0491 178
109.0648 191
117.0699 31
119.0491 111
119.0855 94
121.0648 999
123.0441 112
123.0804 120
125.0597 224
128.0621 53
129.0699 114
131.0855 137
133.0648 51
133.1012 115
135.0804 66
137.0597 80
139.0754 53
141.0546 64
141.0699 66
142.0777 107
143.0855 474
145.0648 107
145.1012 300
147.0804 130
147.1168 90
154.0777 71
155.0855 99
156.0934 160
157.1012 525
158.0726 58
159.0804 238
159.1168 291
161.0961 170
166.0777 104
169.1012 532
171.0804 127
171.1168 495
173.0961 385
175.1118 187
179.0855 31
181.1012 279
182.0726 65
184.0883 76
185.0961 723
187.1118 421
189.1274 129
191.1067 99
197.0961 393
199.1118 758
201.091 63
203.1067 238
209.0961 141
212.0832 55
215.1067 639
217.1223 370
227.1067 349
233.1172 163
235.1329 75
245.1172 559
263.1278 266
305.1384 98

Name: HT-2 Toxin
Synon: 12,13-Epoxytrichothec-9-ene-3-alpha,4-beta,8-alpha,15-tetrol 15-acetate 8-isovalerate
DB#: AC000158
InChIKey: PNKLMTPXERFKEN-MLXHEQMXSA-N
InChI: InChI=1S/C22H32O8/c1-11(2)6-16(24)29-14-8-21(9-27-13(4)23)15(7-12(14)3)30-19-17(25)18(26)20(21,5)22(19)10-28-22/h7,11,14-15,17-19,25-26H,6,8-10H2,1-5H3/t14-,15+,17+,18+,19+,20+,21+,22-/m0/s1
SMILES: CC1=C[C@@H]2[C@](C[C@@H]1OC(=O)CC(C)C)([C@]3([C@@H]([C@H]([C@H]([C@@]34CO4)O2)O)O)C)COC(=O)C
Precursor_type: [M+Na]+
Spectrum_type: MS2
PrecursorMZ: 447.1984
Instrument_type: LC-ESI-ITFT
Instrument: Q-Exactive Orbitrap Thermo Scientific
Ion_mode: POSITIVE
Collision_energy: 35(NCE)
Formula: C22H32O8
MW: 424
ExactMass: 424.20971
Comments: Parent=447.1984
Splash: splash10-0002-0579300000-f9a6310ee60c8929ad8e
Num Peaks: 33
83.0103 42
95.0491 31
105.0699 86
119.0855 74
121.0648 32
131.0855 34
143.0855 44
145.1012 53
157.1012 90
159.0804 39
159.1168 36
169.1012 33
171.1168 42
173.0961 43
175.1118 42
185.0961 44
187.1118 40
197.0937 39
199.1118 31
203.1067 66
204.1145 36
205.1223 39
213.0886 70
227.1043 59
255.0992 33
263.1278 43
267.0992 43
285.1097 645
303.1203 80
327.1203 164
345.1309 999
429.1884 50
447.1989 474

Name: Cyclopenin
Synon: 4-methyl-3'-phenylspiro[1H-1,4-benzodiazepine-3,2'-oxirane]-2,5-dione
DB#: AC000871
InChIKey: APLKWZASYUZSBL-XPCCGILXSA-N
InChI: InChI=1S/C17H14N2O3/c1-19-15(20)12-9-5-6-10-13(12)18-16(21)17(19)14(22-17)11-7-3-2-4-8-11/h2-10,14H,1H3,(H,18,21)/t14-,17?/m1/s1
SMILES: CN1C(=O)C2=CC=CC=C2NC(=O)C13[C@H](O3)C4=CC=CC=C4
Precursor_type: [M+H]+
Spectrum_type: MS2
PrecursorMZ: 295.1072
Instrument_type: LC-ESI-ITFT
Instrument: Q-Exactive Orbitrap Thermo Scientific
Ion_mode: POSITIVE
Collision_energy: 55(NCE)
Formula: C17H14N2O3
MW: 294
ExactMass: 294.10043
Comments: Parent=295.1072
Splash: splash10-0002-0900000000-d22d30f3033db5b77338
Num Peaks: 5
90.0338 106
120.0444 76
146.0236 999
208.0757 40
236.0706 32

Name: Citrinin
Synon: Antimycin
Synon: (3R,4S)-6-hydroxy-3,4,5-trimethyl-8-oxo-3,4-dihydroisochromene-7-carboxylic acid
DB#: AC000428
InChIKey: CBGDIJWINPWWJW-IYSWYEEDSA-N
InChI: InChI=1S/C13H14O5/c1-5-7(3)18-4-8-9(5)6(2)11(14)10(12(8)15)13(16)17/h4-5,7,14H,1-3H3,(H,16,17)/t5-,7-/m1/s1
SMILES: C[C@@H]1[C@H](OC=C2C1=C(C(=C(C2=O)C(=O)O)O)C)C
Precursor_type: [M-H]-
Spectrum_type: MS2
PrecursorMZ: 249.0774
Instrument_type: LC-ESI-ITFT
Instrument: Q-Exactive Orbitrap Thermo Scientific
Ion_mode: NEGATIVE
Collision_energy: 40(NCE)
Formula: C13H14O5
MW: 250
ExactMass: 250.08411
Comments: Parent=249.0774
Splash: splash10-0a6r-0590000000-1359a159a9f5eec08bab
Num Peaks: 9
105.0326 34
135.0794 76
161.095 199
175.0379 127
177.09 422
205.0506 44
205.085 999
231.0663 102
249.0751 212